Data path: /scratch/opt/lxu/CFLG/benchmarks/random_B
Instance: r_30_0.3_131.txt
Result path: /scratch/opt/lxu/CFLG/results/random_B
Solver: Gurobi
Time limit: 7200
Formulation: LEFP
Cover: Large
julia --project=. src/main.jl /scratch/opt/lxu/CFLG/benchmarks/random_B r_30_0.3_131.txt /scratch/opt/lxu/CFLG/results/random_B Gurobi 7200 LEFP Large
The latest version of Julia in the `release` channel is 1.11.6+0.x64.linux.gnu. You currently have `1.11.4+0.x64.linux.gnu` installed. Run:

  juliaup update

in your terminal shell to install Julia 1.11.6+0.x64.linux.gnu and update the `release` channel to that version.
/scratch/opt/lxu/CFLG/benchmarks/random_B Gurobi 7200.0 /scratch/opt/lxu/CFLG/results/random_B r_30_0.3_131.txt LEFP Large
/scratch/opt/lxu/CFLG/benchmarks/random_B/r_30_0.3_131.txt

 read graph
data loaded

problem_graph/original graph: node: 30/30 edge: 131/131 dlt: 1.2087766436331486 break_avg_len: 0.6043883218165743 break_max_len: 0.996803218117645Set parameter TokenServer to value "solice01.zib.de"
Set parameter Threads to value 1
Set parameter OutputFlag to value 1
Gurobi Optimizer version 12.0.1 build v12.0.1rc0 (linux64 - "Debian GNU/Linux 12 (bookworm)")

CPU model: Intel(R) Xeon(R) Gold 5222 CPU @ 3.80GHz, instruction set [SSE2|AVX|AVX2|AVX512]
Thread count: 8 physical cores, 16 logical processors, using up to 1 threads

Non-default parameters:
Threads  1

Optimize a model with 161 rows, 393 columns and 655 nonzeros
Model fingerprint: 0xf3d77f12
Coefficient statistics:
  Matrix range     [1e+00, 1e+00]
  Objective range  [1e+00, 1e+00]
  Bounds range     [1e+00, 1e+00]
  RHS range        [1e+00, 1e+00]
Presolve time: 0.00s
Presolved: 161 rows, 393 columns, 655 nonzeros

Iteration    Objective       Primal Inf.    Dual Inf.      Time
       0    1.3100000e+02   1.830000e+02   0.000000e+00      0s
     121    3.0000000e+01   0.000000e+00   0.000000e+00      0s

Solved in 121 iterations and 0.00 seconds (0.00 work units)
Optimal objective  3.000000000e+01

User-callback calls 165, time in user-callback 0.00 sec
elapsed CPU time: 0.935388 seconds
Set parameter TokenServer to value "solice01.zib.de"
Set parameter Threads to value 1
Set parameter OutputFlag to value 1
Set parameter MIPGap to value 0.0001
Set parameter TimeLimit to value 7199.064612

 more cuts: false 1.2087766436331486 false
is_attach:falseformulation:LEFP0 131 30

 model loaded

Gurobi Optimizer version 12.0.1 build v12.0.1rc0 (linux64 - "Debian GNU/Linux 12 (bookworm)")

CPU model: Intel(R) Xeon(R) Gold 5222 CPU @ 3.80GHz, instruction set [SSE2|AVX|AVX2|AVX512]
Thread count: 8 physical cores, 16 logical processors, using up to 1 threads

Non-default parameters:
TimeLimit  7199.064612
Threads  1

Optimize a model with 16216 rows, 7698 columns and 48105 nonzeros
Model fingerprint: 0xc5798923
Variable types: 292 continuous, 7406 integer (7406 binary)
Coefficient statistics:
  Matrix range     [1e-06, 2e+00]
  Objective range  [1e+00, 1e+00]
  Bounds range     [3e-01, 1e+00]
  RHS range        [3e-01, 1e+01]
Found heuristic solution: objective 23.0000000
Presolve removed 3510 rows and 180 columns
Presolve time: 0.13s
Presolved: 12706 rows, 7518 columns, 44198 nonzeros
Variable types: 161 continuous, 7357 integer (7357 binary)

Root relaxation: objective 1.000000e+00, 4673 iterations, 0.21 seconds (0.34 work units)

    Nodes    |    Current Node    |     Objective Bounds      |     Work
 Expl Unexpl |  Obj  Depth IntInf | Incumbent    BestBd   Gap | It/Node Time

     0     0    1.00000    0   66   23.00000    1.00000  95.7%     -    1s
H    0     0                       5.0000000    1.00000  80.0%     -    1s
H    0     0                       4.0000000    1.00000  75.0%     -    1s
     0     0    1.00000    0  510    4.00000    1.00000  75.0%     -    3s
     0     0    1.00000    0  818    4.00000    1.00000  75.0%     -    4s
     0     0    1.00000    0   81    4.00000    1.00000  75.0%     -    5s
     0     0    1.00000    0   80    4.00000    1.00000  75.0%     -    5s
     0     0    1.00000    0  148    4.00000    1.00000  75.0%     -    6s
     0     0    1.00000    0  148    4.00000    1.00000  75.0%     -    7s
     0     2    1.00000    0  101    4.00000    1.00000  75.0%     -    8s
    13    15    1.00000   11  765    4.00000    1.00000  75.0%  1660   10s
H   27    27                       3.0000000    1.00000  66.7%   874   10s
   169   147    1.96875   68   75    3.00000    1.00000  66.7%   300   15s
   328   231    2.00000   38   95    3.00000    1.00000  66.7%   252   20s
   516   328    1.59622   31   88    3.00000    1.00000  66.7%   216   25s
   688   419    2.00000   15  148    3.00000    1.00000  66.7%   205   39s
   690   420    1.25862   28  205    3.00000    1.00000  66.7%   205   43s
   692   422    1.32158   33  447    3.00000    1.00246  66.6%   204   45s
   695   424    2.00000   45   63    3.00000    2.00000  33.3%   203   51s
   700   427    2.00000   80   89    3.00000    2.00000  33.3%   202   55s
   703   429    2.00000   49   99    3.00000    2.00000  33.3%   201   60s
   712   436    2.00000   27  147    3.00000    2.00000  33.3%   375   65s
   715   438    2.00000   46  554    3.00000    2.00000  33.3%   374   71s
   719   441    2.00000   83  594    3.00000    2.00000  33.3%   372   76s
   723   444    2.00000   29  781    3.00000    2.00000  33.3%   370   83s
   725   445    2.00000    3  704    3.00000    2.00000  33.3%   369   86s
   729   448    2.00000   43  791    3.00000    2.00000  33.3%   366   92s
   732   450    2.00000   18  812    3.00000    2.00000  33.3%   365   95s
   735   452    2.00000   49  890    3.00000    2.00000  33.3%   364  100s
   739   454    2.00000   52  902    3.00000    2.00000  33.3%   362  106s
   742   456    2.00000   83  870    3.00000    2.00000  33.3%   360  110s
   745   458    2.00000  103  762    3.00000    2.00000  33.3%   359  115s
   751   462    2.00000   43  864    3.00000    2.00000  33.3%   356  120s
   756   466    2.00000   38  906    3.00000    2.00000  33.3%   353  125s
   765   472    2.00000   31 1019    3.00000    2.00000  33.3%   349  130s
   775   478    2.00000    7 1116    3.00000    2.00000  33.3%   345  136s
   807   486     cutoff   38         3.00000    2.00000  33.3%   684  140s
   930   450    2.00000   51  131    3.00000    2.00000  33.3%   669  145s
  1130   394    2.00000   36  159    3.00000    2.00000  33.3%   599  150s
  1292   369    2.00000   29  148    3.00000    2.00000  33.3%   572  155s
  1417   400    2.00000   32  270    3.00000    2.00000  33.3%   557  160s
  1551   419    2.00000   66  101    3.00000    2.00000  33.3%   537  165s
  1582   416    2.00000   59  194    3.00000    2.00000  33.3%   540  170s
  1651   398    2.00000   94   98    3.00000    2.00000  33.3%   549  175s
  1765   420    2.00000   75  195    3.00000    2.00000  33.3%   542  180s
  1996   382    2.00000   68  118    3.00000    2.00000  33.3%   512  185s
  2188   362    2.00000   88  118    3.00000    2.00000  33.3%   495  190s
  2327   370    2.00000   92  165    3.00000    2.00000  33.3%   498  195s
  2454   436    2.00000   56  262    3.00000    2.00000  33.3%   490  200s
  2578   490    2.00000   75  161    3.00000    2.00000  33.3%   488  205s
  2691   553    2.00000   48  103    3.00000    2.00000  33.3%   484  210s
  2837   601     cutoff   62         3.00000    2.00000  33.3%   477  215s
  2960   698    2.00000   76  131    3.00000    2.00000  33.3%   470  220s
  3105   730     cutoff   47         3.00000    2.00000  33.3%   468  225s
  3268   811    2.00000   36  235    3.00000    2.00000  33.3%   460  230s
  3452   821     cutoff   65         3.00000    2.00000  33.3%   458  235s
  3576   807    2.00000   75  120    3.00000    2.00000  33.3%   460  240s
  3752   819     cutoff   71         3.00000    2.00000  33.3%   460  245s
  3875   748    2.00000   64  124    3.00000    2.00000  33.3%   471  250s
  4055   652    2.00000   42  188    3.00000    2.00000  33.3%   476  255s
  4180   655    2.00000   46   95    3.00000    2.00000  33.3%   478  260s
  4323   646     cutoff   63         3.00000    2.00000  33.3%   482  265s
  4396   583     cutoff   44         3.00000    2.00000  33.3%   493  270s
  4563   500    2.00000   56  134    3.00000    2.00000  33.3%   498  275s
  4701   424    2.00000   60  110    3.00000    2.00000  33.3%   503  280s
  4836   353     cutoff   45         3.00000    2.00000  33.3%   507  285s
  4931   336     cutoff   55         3.00000    2.00000  33.3%   512  290s
  5088   355     cutoff  126         3.00000    2.00000  33.3%   510  295s
  5238   353     cutoff   53         3.00000    2.00000  33.3%   509  300s
  5358   237     cutoff   51         3.00000    2.00000  33.3%   520  305s
  5436   165     cutoff   41         3.00000    2.00000  33.3%   528  310s
  5590    75     cutoff   85         3.00000    2.00000  33.3%   532  315s
  5688    61     cutoff   64         3.00000    2.00000  33.3%   536  320s
  5735    14     cutoff   54         3.00000    2.00000  33.3%   548  325s

Cutting planes:
  Gomory: 1
  Cover: 5
  Implied bound: 3
  Clique: 2
  MIR: 4
  StrongCG: 1
  Flow cover: 15
  GUB cover: 7
  Zero half: 15
  RLT: 31
  Relax-and-lift: 54

Explored 5754 nodes (3224885 simplex iterations) in 326.25 seconds (465.10 work units)
Thread count was 1 (of 16 available processors)

Solution count 6: 3 3 4 ... 23

Optimal solution found (tolerance 1.00e-04)
Best objective 3.000000000000e+00, best bound 3.000000000000e+00, gap 0.0000%

User-callback calls 89962, time in user-callback 0.14 sec

 sepatime0 0 0
3.0
Stat(MathOptInterface.OPTIMAL, 3.0, 3.0, 0.0, 0.0, 0.935388, 326.2520160675049, 5754, Main.CFLG.LEFP, "", #undef)
